NAME: S051D5_25
COMMENT: 1399.96
VEHICLE: 23
TIME: 184.6444
DIMENSION: 51
CAPACITY: 160
DELIVERY_SECTION
0 0 0
1 1 40
2 1 16
3 1 1.6
4 1 1.4
5 2 40
6 2 16
7 2 8
8 2 1.6
9 2 1.6
10 2 1.6
11 2 0.2
12 3 40
13 3 16
14 4 40
15 4 40
16 4 16
17 4 8
18 4 1.6
19 4 1.6
20 4 0.8
21 5 40
22 5 8
23 5 1
24 6 40
25 6 40
26 6 8
27 6 1.6
28 6 1.6
29 6 1.6
30 6 1.2
31 7 40
32 7 8
33 7 1.6
34 7 1.6
35 7 1.6
36 7 1.2
37 8 40
38 8 40
39 8 16
40 9 40
41 9 8
42 9 1.6
43 9 1.6
44 9 1.6
45 9 0.2
46 10 40
47 10 40
48 10 16
49 10 8
50 10 1.6
51 10 1.6
52 10 1.6
53 10 0.2
54 11 40
55 11 8
56 11 1.6
57 11 1.6
58 11 1.6
59 11 0.2
60 12 40
61 12 16
62 12 16
63 12 1.6
64 12 1.6
65 12 1.6
66 12 1.2
67 13 40
68 13 16
69 13 1.6
70 13 1.4
71 14 40
72 14 40
73 14 16
74 14 8
75 14 1.6
76 14 1.6
77 14 1.6
78 14 1.6
79 14 0.6
80 15 40
81 15 8
82 15 1.6
83 15 1.6
84 15 0.8
85 16 40
86 16 8
87 16 1.6
88 16 1.6
89 16 1.6
90 16 0.2
91 17 40
92 17 16
93 17 1.6
94 17 1.6
95 17 1.6
96 17 1.2
97 18 40
98 18 40
99 18 16
100 18 1.6
101 18 1.4
102 19 40
103 19 8
104 19 1.6
105 19 1.6
106 19 0.8
107 20 40
108 20 16
109 20 8
110 20 1.6
111 20 1.6
112 20 1.6
113 20 0.2
114 21 40
115 21 16
116 21 8
117 22 40
118 22 16
119 22 16
120 22 1.6
121 22 1.6
122 22 1.6
123 22 1.2
124 23 40
125 23 8
126 23 1.6
127 23 1.6
128 23 0.8
129 24 40
130 24 40
131 24 8
132 24 1.6
133 24 1.6
134 24 1.6
135 24 0.2
136 25 40
137 25 16
138 25 1.6
139 25 1.6
140 25 1.6
141 25 1.6
142 25 0.6
143 26 40
144 26 8
145 26 1.6
146 26 1.4
147 27 40
148 27 8
149 27 1.6
150 27 1.6
151 27 0.8
152 28 40
153 28 40
154 28 16
155 28 8
156 28 1.6
157 28 1.6
158 28 0.8
159 29 40
160 29 16
161 29 1.6
162 29 1.6
163 29 0.8
164 30 40
165 30 16
166 30 8
167 30 1.6
168 30 1.6
169 30 1.6
170 30 1.2
171 31 40
172 31 8
173 31 1.6
174 31 1.6
175 31 0.8
176 32 40
177 32 40
178 32 16
179 32 8
180 32 1.6
181 32 1.6
182 32 1.6
183 32 1.6
184 32 0.6
185 33 40
186 33 16
187 34 40
188 34 40
189 34 8
190 34 1.6
191 34 1.4
192 35 40
193 35 8
194 35 1.6
195 35 1.6
196 35 1.6
197 35 1.2
198 36 40
199 36 40
200 36 16
201 36 1.6
202 36 1.6
203 36 0.8
204 37 40
205 37 8
206 37 1
207 38 40
208 38 40
209 38 16
210 38 8
211 39 40
212 39 8
213 39 1.6
214 39 1.6
215 39 1.6
216 39 1.6
217 39 0.6
218 40 40
219 40 16
220 40 16
221 40 1.6
222 40 1.6
223 40 1.6
224 40 1.6
225 40 0.6
226 41 40
227 41 8
228 41 1.6
229 41 1.6
230 41 1.6
231 41 1.6
232 41 0.6
233 42 40
234 42 40
235 42 16
236 42 8
237 42 1.6
238 42 1.6
239 42 1.6
240 42 1.6
241 42 0.6
242 43 40
243 43 16
244 43 1.6
245 43 0.4
246 44 40
247 44 8
248 44 1.6
249 44 1.4
250 45 40
251 45 16
252 45 8
253 45 1.6
254 45 0.4
255 46 40
256 46 40
257 46 16
258 46 8
259 46 1.6
260 46 1.6
261 46 1.6
262 46 1.6
263 46 0.6
264 47 40
265 47 16
266 47 1.6
267 47 1.6
268 47 1.6
269 47 0.2
270 48 40
271 48 16
272 48 8
273 48 1.6
274 48 1.6
275 48 1.6
276 48 1.6
277 48 0.6
278 49 40
279 49 16
280 49 16
281 49 1.6
282 49 1.6
283 49 1.6
284 49 1.2
285 50 40
286 50 40
287 50 16
288 50 8
289 50 1.6
290 50 0.4
PICKUP_SECTION
NODE_SECTION
30 40

37 52

49 49

52 64

20 26

40 30

21 47

17 63

31 62

52 33

51 21

42 41

31 32

 5 25

12 42

36 16

52 41

27 23

17 33

13 13

57 58

62 42

42 57

16 57
 
8 52

 7 38

27 68

30 48

43 67

58 48

58 27

37 69

38 46

46 10

61 33

62 63

63 69

32 22

45 35

59 15

 5  6

10 17

21 10

 5 64

30 15

39 10

32 39

25 32

25 55

48 28

56 37
DISTANCE_SECTION
DEPOT_SECTION
0
EOF